language ESSENCE' 1.0
letting lastdx=94
letting cage be [
[14,13,10,0,0, 0,0, 0,0, 0,0],
[2,13,5,0,0, 0,0, 0,0, 0,0],
[12,4,1,0,0, 0,0, 0,0, 0,0],
[24,12,13,13,13,14,13,0,0, 0,0],
[30,13,2,13,3,12,3,0,0, 0,0],
[16,11,4,0,0, 0,0, 0,0, 0,0],
[10,1,15,0,0, 0,0, 0,0, 0,0],
[46,16,9,16,10,16,11,15,11,14,11],
[1,9,6,0,0, 0,0, 0,0, 0,0],
[41,6,7,7,7,7,8,6,8,6,9],
[31,4,12,5,12,6,12,0,0, 0,0],
[30,10,3,10,4,10,5,0,0, 0,0],
[9,7,15,0,0, 0,0, 0,0, 0,0],
[15,16,6,15,6,15,7,0,0, 0,0],
[32,9,3,8,3,8,2,0,0, 0,0],
[10,1,12,2,12,0,0, 0,0, 0,0],
[17,3,2,2,2,0,0, 0,0, 0,0],
[36,4,14,5,14,6,14,6,15,0,0],
[46,16,2,15,2,15,1,16,1,14,1],
[27,15,13,15,12,16,12,0,0, 0,0],
[1,2,5,0,0, 0,0, 0,0, 0,0],
[25,6,2,6,3,7,3,0,0, 0,0],
[35,5,16,5,15,4,15,4,16,0,0],
[7,5,7,0,0, 0,0, 0,0, 0,0],
[38,10,6,11,6,11,5,0,0, 0,0],
[42,8,8,8,9,9,9,10,9,0,0],
[2,6,16,0,0, 0,0, 0,0, 0,0],
[39,4,7,4,6,5,6,0,0, 0,0],
[21,2,8,2,7,0,0, 0,0, 0,0],
[7,12,2,0,0, 0,0, 0,0, 0,0],
[32,16,5,16,4,16,3,0,0, 0,0],
[2,11,3,0,0, 0,0, 0,0, 0,0],
[35,9,16,10,16,11,16,12,16,0,0],
[27,2,1,3,1,0,0, 0,0, 0,0],
[28,2,16,1,16,0,0, 0,0, 0,0],
[3,12,12,0,0, 0,0, 0,0, 0,0],
[13,15,10,0,0, 0,0, 0,0, 0,0],
[25,14,8,15,8,0,0, 0,0, 0,0],
[36,11,11,11,10,12,10,12,9,0,0],
[42,6,10,5,10,4,10,3,10,2,10],
[37,7,13,8,13,9,13,9,14,10,14],
[15,3,4,0,0, 0,0, 0,0, 0,0],
[2,12,7,0,0, 0,0, 0,0, 0,0],
[16,14,9,14,10,15,9,0,0, 0,0],
[14,1,9,0,0, 0,0, 0,0, 0,0],
[30,14,2,14,3,14,4,15,4,15,3],
[25,11,2,10,2,0,0, 0,0, 0,0],
[10,5,1,0,0, 0,0, 0,0, 0,0],
[16,10,11,10,12,0,0, 0,0, 0,0],
[43,1,7,1,8,1,6,2,6,3,6],
[34,9,11,8,11,8,12,9,12,0,0],
[23,12,8,11,8,11,9,0,0, 0,0],
[38,15,15,15,14,16,14,16,13,0,0],
[27,10,10,9,10,8,10,7,10,7,9],
[17,2,11,1,11,1,10,0,0, 0,0],
[7,10,7,11,7,0,0, 0,0, 0,0],
[15,6,6,0,0, 0,0, 0,0, 0,0],
[39,4,2,5,2,5,3,5,4,0,0],
[40,7,16,8,16,8,15,8,14,7,14],
[16,13,12,14,12,0,0, 0,0, 0,0],
[34,3,11,4,11,5,11,6,11,0,0],
[26,13,11,12,11,0,0, 0,0, 0,0],
[10,16,7,16,8,0,0, 0,0, 0,0],
[39,11,15,11,14,12,14,13,14,14,14],
[28,7,1,6,1,7,2,0,0, 0,0],
[6,11,1,0,0, 0,0, 0,0, 0,0],
[2,8,6,0,0, 0,0, 0,0, 0,0],
[21,16,16,16,15,0,0, 0,0, 0,0],
[35,11,13,10,13,11,12,0,0, 0,0],
[33,4,3,4,4,4,5,3,5,5,5],
[44,13,4,12,4,12,5,12,6,13,6],
[46,6,5,7,5,7,6,8,5,0,0],
[32,9,1,8,1,9,2,10,1,0,0],
[36,13,8,13,9,13,7,14,7,0,0],
[13,8,7,9,7,0,0, 0,0, 0,0],
[16,7,12,7,11,0,0, 0,0, 0,0],
[15,1,5,0,0, 0,0, 0,0, 0,0],
[31,10,8,9,8,0,0, 0,0, 0,0],
[24,14,6,14,5,15,5,0,0, 0,0],
[7,9,5,0,0, 0,0, 0,0, 0,0],
[20,9,15,10,15,0,0, 0,0, 0,0],
[45,4,8,4,9,3,9,2,9,0,0],
[8,5,8,5,9,0,0, 0,0, 0,0],
[15,8,4,9,4,7,4,6,4,0,0],
[9,12,15,13,15,13,16,0,0, 0,0],
[16,1,1,1,2,1,3,0,0, 0,0],
[27,1,4,2,4,2,3,3,3,0,0],
[34,1,13,1,14,2,14,2,15,0,0],
[2,2,13,0,0, 0,0, 0,0, 0,0],
[7,3,7,3,8,0,0, 0,0, 0,0],
[16,3,12,3,13,0,0, 0,0, 0,0],
[21,3,14,3,15,3,16,0,0, 0,0],
[34,4,13,5,13,6,13,0,0, 0,0],
[17,12,1,13,1,0,0, 0,0, 0,0],
[34,14,15,14,16,15,16,0,0, 0,0]
]
